4401
4409
4304
4352
4363
4349
4418
4330
4306
4358
4314
4364
4285
4352
4326
4386
4312
4392
4348
4373
4329
4400
4327
4345
4295
4323
4332
4372
4365
4314
4365
4355
4357
4330
4357
4350
4371
4330
4398
4398
4379
4305
4305
4366
4299
4399
4380
4366
4407
4359
4393
4343
4320
4302
4313
4364
4335
4331
4343
4389
4313
4341
4424
4421
4344
4278
4330
4319
4362
4406
4383
4310
4373
4365
4361
4358
4390
4351
4412
4389
4358
4396
4357
4329
4327
4392
4378
4369
4393
4354
4349
4359
4293
4334
4415
4376
4283
4339
4390
4308
